c clasp version 2.1.1
c Reading from p66.cnf
c Solving...
s SATISFIABLE

c Models        : 1+    
c Time          : 2.049s (Solving: 0.56s 1st Model: 0.56s Unsat: 0.00s)
c CPU Time      : 2.040s
c Choices       : 22575
c Conflicts     : 909
c Restarts      : 3      (Average: 303.00 Last: 168)

c Variables     : 231855 (Eliminated: 72346 Frozen:    0)
c Constraints   : 262254 (Binary: 65.0% Ternary: 33.7% Other:  1.3%)
c Lemmas        : 909    (Binary:  0.4% Ternary:  1.2% Other: 98.3%)
c   Conflict    : 909    (Average Length: 36.1) 
c   Loop        : 0      (Average Length: 0.0) 
c   Other       : 0      (Average Length: 0.0)
c   Deleted     : 0     
